20
21
20
40
46
80
85
44
24
27
74
81
10
13
81
20
54
69
84
66
8
34
2
0 4
0 6
0 13
0 18
1 4
1 16
2 6
2 10
3 4
3 18
4 10
4 15
4 16
6 12
6 14
7 12
9 14
9 15
11 16
15 19
16 18
16
15
11
8
12
1
17
4
18
7
6
0
2
14
10
3
19
5
13
9
